Route #1: 13 30 14 5
Route #2: 8 10 17 23 24
Route #3: 22 11 9 4
Route #4: 6
Route #5: 1
Route #6: 12
Route #7: 20 25
Route #8: 31
Route #9: 7
Route #10: 27 26
Route #11: 16
Route #12: 29 15 18 2 28 3
Route #13: 21 19

Cost: 2051.513364189448
